2467
2189
1932
1761
1566
1089
1078
3515
1846
3074
1575
1004
2189
3456
3405
743
3191
2462
2942
569
2213
795
1691
2774
1980
1163
2382
1129
2128
2387
3532
2125
2143
2190
1105
2266
1131
2451
1511
2815
1683
3256
2681
2133
3202
374
3720
1065
2719
1239
1261
2506
1747
1045
1396
699
2996
2532
668
539
2584
1096
807
1267
2405
3140
2470
1285
1822
2663

32126
23807
16874
13087
13797
12376
2942
46362
25092
38043
14845
9198
19512
43894
42338

950
704
499
387
408
366
87
1371
742
1125
439
272
577
1298
1252

2095.4

102
76
54
42
44
40
10
147
80
121
48
30
62
139
135
23
147
112
135
7
85
7
75
121
77
23
92
33
103
95
131
100
106
103
40
95
15
109
35
97
59
113
110
59
111
13
141
49
131
31
55
116
46
36
65
27
124
114
7
19
86
10
33
20
98
117
99
63
75
119
